NAME: pr2392.heu.tour
TYPE: TOUR
COMMENT: Heuristic tour (Lin-Kernighan), length 513101.25
DIMENSION: 2392
TOUR_SECTION
1
2392
2391
2390
2389
2388
2
2387
2386
2385
2384
2383
2382
2381
2380
2379
2378
2377
2376
2374
2375
2372
2373
2339
2371
2370
2369
2368
2367
2366
2365
2364
2362
2361
2360
2359
2358
2357
2356
2355
2354
2353
2352
2351
2350
2349
2348
2363
2347
2346
2340
2345
2344
2343
2342
2341
2338
2337
2336
2335
2334
2333
2332
2331
2330
2329
3
4
5
6
14
15
16
17
2328
2327
2326
2325
2324
2316
2317
2315
2314
1322
1321
1320
1318
1317
1315
1316
1319
1323
1339
1341
1340
1346
1345
1348
1349
1354
1355
1356
1285
1284
1286
1287
1288
1289
1290
1291
1292
1293
1294
1295
1296
31
32
30
29
28
27
26
25
39
38
37
36
35
34
33
1283
1357
1358
1359
1360
1361
1362
1363
1364
1365
1366
1372
1371
1370
1368
1367
1369
1381
1380
1379
1377
1378
1382
1383
1384
1385
1386
1388
1387
1389
1391
1390
1392
1393
1394
1395
1396
1397
1398
1417
1416
1415
1414
1413
1412
1411
1410
1408
1405
1404
1406
1403
1401
1400
1402
1407
1409
1399
1243
1242
1241
1240
1239
1244
1246
1247
1248
1249
1250
1251
1252
1253
1245
1229
1227
1226
1228
1222
1221
1220
1219
1218
1217
1216
1213
1214
1215
1211
1212
1210
1209
1208
1207
1206
1205
1204
1203
1200
1199
1198
1201
1202
1195
1194
1191
1192
1193
159
158
160
1190
1189
1188
1187
1185
1184
1186
1182
1181
1180
1179
1178
1177
1176
1174
1175
1156
1157
1158
1159
1160
1161
1162
1163
1164
1165
1166
1167
1171
1168
1170
1169
1173
1172
1183
170
168
167
166
164
163
161
162
165
169
185
187
186
192
191
194
195
200
201
202
131
130
129
203
204
205
206
207
208
209
210
211
212
218
217
216
214
213
215
227
226
225
223
224
228
229
230
231
232
234
233
235
237
236
238
239
240
241
242
243
244
263
262
261
260
259
258
257
256
254
253
252
248
249
246
247
250
251
255
245
219
220
221
222
124
123
122
121
120
119
118
117
116
115
114
108
107
106
105
104
103
102
101
100
96
95
94
93
133
132
134
135
136
137
138
139
140
141
142
91
92
90
89
88
87
86
85
97
98
99
113
112
111
110
109
125
126
127
128
199
198
197
196
190
189
193
188
184
183
182
180
181
179
178
177
176
353
351
350
349
348
347
346
345
343
344
357
356
355
354
358
359
360
361
362
363
364
365
366
367
368
369
370
371
372
373
374
375
376
1103
1102
1101
1093
1092
1091
1090
1094
1095
1088
1087
1089
1086
1085
1084
1083
1082
1098
1097
1096
1100
1099
1104
1105
1106
1107
1108
1111
1109
1110
1134
1135
1131
1130
1129
1128
1127
1126
1125
1117
1116
1118
1119
1115
1120
1121
1122
1123
1124
1069
1068
1067
1066
1065
1064
1061
1063
1062
1028
1027
1026
1025
1024
1023
1022
1021
1454
1453
1450
1451
1452
1455
1456
1457
1458
1552
1551
1550
1548
1549
1547
1546
1545
1544
1543
1553
1554
1555
1449
1448
1447
1444
1443
1442
1441
1440
1439
1438
1463
1464
1465
1466
1467
1469
1471
1470
1472
1473
1460
1474
1475
1476
1477
1478
1482
1483
1484
1485
1486
1487
1490
1488
1489
1523
1524
1525
1526
1527
1528
1529
1530
2221
2220
2219
2211
2210
2209
2208
2212
2213
2206
2205
2207
2204
2203
2202
2201
2200
2216
2215
2214
2218
2217
2222
2223
2224
2225
2226
2229
2227
2228
2252
2253
2249
2248
2247
2246
2245
2244
2243
2235
2234
2236
2237
2233
2238
2239
2240
2241
2242
2187
2186
2185
2184
2183
2182
2179
2181
2180
2146
2145
2144
2143
2142
2141
2140
2139
2147
2148
2150
2149
2151
2152
2153
2154
2155
2156
2157
2158
2159
2166
2167
2168
2169
2170
2171
2172
2165
2164
2162
2163
2160
2161
2177
2176
2174
2173
2175
2178
2188
2190
2189
2191
2192
2199
2193
2198
2197
2194
2195
2196
2136
2137
2138
2250
2251
2254
2255
2259
2257
2256
2258
2260
2261
2262
2264
2263
2269
2270
2271
2272
2273
2268
2267
2265
2266
2231
2230
2232
1522
1521
1519
1520
1518
1517
1516
1515
1514
1513
1512
1509
1508
1510
1511
1503
1502
1501
1500
1499
1497
1498
1504
1505
1507
1506
1491
1492
1493
1495
1494
1496
1481
1479
1480
1540
1541
1542
1538
1537
1536
1534
1535
1533
1532
1531
1539
1468
1462
1461
1437
1436
1432
1434
1433
1435
1430
1429
1427
1428
1422
1421
1420
1419
1418
1423
1424
1426
1425
1431
1445
1446
1459
1029
1030
1032
1031
1033
1034
1035
1036
1037
1038
1039
1040
1041
1048
1049
1050
1051
1052
1053
1054
1047
1046
1044
1045
1042
1043
1059
1058
1056
1055
1057
1060
1070
1072
1071
1073
1074
1081
1075
1080
1079
1076
1077
1078
1018
1019
1020
1132
1133
1136
1137
1141
1139
1138
1140
1142
1143
1144
1146
1145
1151
1152
1153
1154
1155
1150
1149
1147
1148
1113
1112
1114
334
335
336
333
332
330
331
329
328
323
324
322
321
320
319
306
318
316
315
313
314
312
311
310
309
284
285
286
287
288
289
290
293
294
295
296
297
298
301
302
303
304
398
397
396
394
395
393
392
391
390
389
399
400
401
299
300
291
292
305
283
282
278
280
279
281
276
275
273
274
268
267
266
265
264
269
270
272
271
277
308
307
317
327
325
326
386
387
388
384
383
382
380
381
379
378
377
987
986
985
984
983
982
981
980
979
978
977
976
975
974
973
968
967
966
965
407
408
409
410
411
412
413
414
415
416
417
418
419
440
439
426
425
424
421
420
964
423
422
960
959
958
957
921
956
953
954
955
948
949
947
931
930
929
928
926
925
923
924
927
932
933
934
935
936
937
791
790
788
787
789
785
784
783
782
781
780
779
777
778
759
760
761
762
763
764
765
766
767
768
769
770
774
771
773
772
776
775
786
792
793
794
795
796
797
798
799
807
806
808
809
805
804
813
812
811
810
814
803
815
816
817
818
819
820
821
822
827
826
828
829
830
836
835
834
837
853
854
852
851
850
849
848
847
1703
1704
1706
1705
1707
1709
1708
1710
1711
1712
1713
1714
1715
1716
1735
1734
1733
1732
1731
1730
1729
1728
1726
1723
1722
1724
1721
1719
1718
1720
1725
1727
1717
1702
1701
1700
1699
1698
863
862
864
1697
1696
1695
1694
1690
1689
1688
1687
866
1686
1685
1684
1683
1682
1681
1677
1676
1675
1674
1673
1672
1636
1671
1668
1669
1670
1663
1664
1662
1646
1645
1644
1643
1641
1640
1638
1639
1642
1647
1648
1649
1650
1651
1652
2045
2046
2047
2048
2049
2050
2051
2052
2060
2059
2061
2062
2058
2057
2066
2065
2064
2063
2067
2056
2068
2069
2070
1611
1610
1609
2071
2072
2075
2076
2077
2078
2079
2080
2081
2087
2086
2085
2088
2104
2105
2103
2102
2101
2100
2099
2098
2106
2107
2108
2109
2110
2111
2112
2089
2090
2091
2093
2092
2094
2095
2096
2097
2082
2083
2084
2114
2115
2116
2113
2117
2118
2119
2120
2121
2122
2123
2124
2125
2126
2127
2074
2073
1608
2055
2054
2053
1613
1612
1614
1615
1616
1617
1618
1619
1620
1621
1622
1591
1592
1593
1594
1595
1596
1597
1598
1599
1600
1604
1605
1606
1607
2129
2128
2130
2131
2132
2133
2134
2135
1603
1602
1601
1590
1589
1588
1587
1586
2044
2043
2041
2040
2042
2038
2037
2036
2035
2034
2033
2032
2030
2031
2012
2013
2014
2015
2016
2017
2018
2019
2020
2021
2022
2023
2027
2024
2026
2025
2029
2028
2039
1661
1660
1659
1657
1658
1656
1655
1654
1653
1665
1667
1666
1635
1634
1637
1633
1631
1630
1629
1628
1627
1626
1625
1624
1623
1632
1678
1679
1680
867
868
865
869
870
871
872
873
874
875
876
877
878
879
1561
1562
1563
1564
1565
1566
1567
1568
1569
1570
1574
1575
1576
1577
1578
1579
1580
1581
1582
1583
1584
1585
1573
1572
1571
1560
1559
1558
1557
1556
1691
1692
1693
855
856
857
858
859
860
861
838
839
840
842
841
843
844
845
846
831
832
833
823
824
825
889
888
887
886
885
884
883
882
881
880
890
891
892
893
896
895
894
802
801
800
898
897
899
900
901
902
903
904
905
906
907
993
994
995
996
997
998
999
1000
1001
1002
1006
1007
1008
1009
1010
1011
1012
1013
1014
1015
1016
1017
1005
1004
1003
992
991
990
989
988
946
945
944
942
943
941
940
939
938
594
592
591
590
589
588
587
586
584
585
598
597
596
595
599
600
601
602
603
604
605
606
607
608
609
610
611
612
613
614
615
616
617
726
725
724
721
624
625
626
627
628
629
630
631
632
633
623
621
622
720
719
718
723
722
727
728
729
732
733
734
735
736
737
738
713
712
711
710
709
708
707
706
705
704
703
702
701
700
698
699
694
693
692
691
690
689
686
688
687
653
652
651
650
649
648
647
646
1792
1791
1788
1789
1790
1798
1797
1796
1803
1802
1804
1805
1806
1807
1808
1809
1793
1794
1795
1799
1800
1801
1787
1786
1785
1784
1783
1780
1782
1781
1757
1756
1760
1761
1762
1763
1764
1766
1774
1775
1773
1772
1771
1770
1769
1767
1768
1822
1823
1824
1825
1826
1827
1830
1828
1829
1863
1864
1865
1866
1867
1868
1869
1870
1979
1978
1977
1974
1877
1878
1879
1880
1881
1882
1883
1884
1885
1886
1876
1874
1875
1973
1972
1971
1976
1975
1980
1981
1982
1985
1986
1987
1988
1989
1990
1991
1966
1965
1964
1963
1962
1961
1960
1959
1958
1957
1956
1955
1954
1953
1951
1952
1947
1946
1945
1944
1943
1942
1939
1941
1940
1906
1905
1904
1903
1902
1901
1900
1899
1907
1908
1909
1910
1911
1912
1913
1914
1915
1916
1917
1918
1919
1926
1927
1928
1929
1930
1931
1932
1925
1924
1922
1923
1920
1921
1937
1936
1934
1933
1935
1938
1948
1950
1949
1889
1888
1887
1891
1892
1893
1895
1894
1896
1897
1898
1890
1969
1967
1968
1992
1993
1997
1995
1994
1996
1998
1999
2000
2002
2001
2007
2008
2009
2010
2011
2006
2005
2003
2004
1983
1970
1984
1862
1861
1859
1860
1858
1857
1856
1855
1854
1853
1852
1849
1848
1850
1851
1843
1842
1841
1840
1839
1837
1838
1844
1845
1847
1846
1831
1832
1833
1835
1834
1836
1821
1819
1820
1818
1817
1810
1811
1812
1815
1814
1813
1871
1872
1873
1816
1776
1765
1759
1758
1755
1754
1750
1752
1751
1753
1748
1747
1745
1746
1740
1739
1738
1737
1736
1741
1742
1744
1743
1749
1778
1777
1779
654
655
657
656
658
659
660
661
662
663
664
665
666
673
674
675
676
677
678
679
672
671
669
670
667
668
684
683
681
680
682
685
695
697
696
636
635
634
638
639
640
642
641
643
644
645
637
716
714
715
739
740
744
742
741
743
745
746
747
749
748
754
755
756
757
758
753
752
750
751
730
717
731
575
576
577
574
573
571
572
570
569
514
515
516
517
518
519
520
521
513
511
512
510
509
508
507
503
504
528
529
527
530
531
532
525
524
526
533
534
535
536
537
545
544
543
550
549
551
552
553
554
555
556
540
541
542
546
547
548
538
539
502
501
497
499
498
500
495
494
492
493
487
486
485
484
483
488
489
491
490
496
506
505
522
523
568
566
567
565
564
557
558
559
562
561
560
618
619
620
563
578
579
580
582
581
583
593
950
952
951
920
919
922
918
916
915
914
913
912
911
910
909
908
917
961
962
963
427
428
429
430
431
437
436
435
433
432
434
446
445
444
442
443
447
448
449
450
451
453
452
454
456
455
457
458
459
460
461
462
463
482
481
480
479
478
477
476
475
473
470
469
471
468
466
465
467
472
474
464
438
441
406
405
404
403
402
969
970
971
972
385
337
338
339
341
340
342
352
171
172
173
174
175
1196
1197
155
156
157
154
153
152
151
150
149
148
147
146
145
144
143
79
80
81
82
83
84
78
77
76
75
74
73
72
71
70
69
68
67
66
65
64
63
62
61
1268
1267
1266
1265
1264
1263
1262
1261
1260
1259
1258
1254
1257
1256
1255
1223
1224
1225
1230
1231
1232
1234
1233
1235
1236
1237
1238
1373
1374
1375
1376
1277
1276
1275
1274
1273
1272
1271
1270
1269
49
48
47
46
45
44
43
42
41
40
54
53
52
51
50
60
59
58
57
56
55
1279
1278
1280
1281
1282
1353
1352
1351
1350
1344
1343
1347
1342
1338
1337
1336
1334
1335
1333
1332
1331
1330
1329
1328
1327
1326
1325
1324
2301
2290
2291
2287
2288
2286
2289
2285
2284
2283
2282
2281
2280
2279
2278
2277
2276
2275
2274
2293
2292
2294
2295
2296
2297
2298
2299
2300
2304
2302
2303
2305
2306
2307
2308
1314
1312
1313
2311
2310
2309
2312
2313
2320
2319
2321
2318
1311
1310
2322
2323
1309
1308
1307
1306
1305
1304
1303
1302
1301
1300
1299
1298
1297
19
18
20
21
22
23
24
10
11
12
13
7
8
9
-1
EOF
